09-routing/solutions/XSH-n20-k4-53.opt.sol
Route #1: 15 17 2 8 3
Route #2: 1 6 13 10 14
Route #3: 5 4 18 7 12
Route #4: 19 11 16 9 20
Cost 967
